int NumberPatients = 186
int NumberOfRooms = 10
int NumberSurgeons = 23
int NumberOfDays = 6
Duration = [119,107,47,166,60,40,119,66,157,159,32,59,101,72,33,210,138,32,35,103,119,103,32,41,140,317,103,85,60,98,130,98,67,92,119,32,47,159,105,98,132,98,98,74,32,60,78,32,98,60,29,66,98,32,66,60,93,98,210,47,105,46,132,58,238,66,75,47,96,31,72,103,39,103,47,93,166,47,119,98,47,120,119,97,78,47,234,117,75,66,98,32,238,32,47,98,47,159,67,238,59,119,103,201,105,90,117,114,105,131,32,32,60,210,31,32,131,32,98,93,94,238,96,101,103,47,85,72,72,72,138,92,132,72,107,105,119,66,47,157,93,60,140,103,114,166,60,53,66,98,98,39,103,85,98,166,79,53,131,98,105,31,79,53,119,119,132,93,131,97,145,119,238,60,47,31,39,122,46,115,60,30,78,53,41,66];
Priority = [0,0,0,0,0,1,0,0,0,0,0,0,0,0,0,0,0,0,0,0,0,0,0,0,0,0,0,0,0,0,0,0,0,0,0,0,0,0,0,0,0,0,0,0,0,0,0,0,0,0,0,0,0,0,0,0,0,0,0,0,0,0,0,0,0,0,0,0,0,0,0,0,0,0,0,0,0,0,0,0,0,0,0,0,0,0,0,0,0,0,0,0,0,0,0,0,1,0,0,0,0,0,0,0,0,0,0,0,0,0,0,0,0,0,0,0,0,0,0,0,0,0,0,0,0,0,1,0,0,0,0,0,0,0,0,0,0,0,0,0,0,0,0,0,0,0,0,0,0,0,0,0,0,1,0,0,0,0,0,0,0,0,0,0,0,0,0,0,0,1,0,0,0,0,0,0,0,0,0,0,0,0,0,0,0,0];
Waiting = [50,36,204,46,107,176,79,45,77,85,120,148,478,73,79,176,79,382,30,232,113,57,95,253,172,604,289,317,178,106,128,227,56,102,25,137,37,37,60,204,253,487,58,127,36,24,92,270,56,56,37,430,155,141,249,431,73,275,30,317,141,74,32,59,494,53,190,161,172,156,232,1065,114,24,102,204,113,205,137,74,221,316,99,60,78,141,99,259,95,106,274,135,366,50,120,198,51,120,116,387,107,51,66,148,113,32,35,44,221,135,107,338,74,49,113,73,92,79,66,63,95,277,141,183,79,148,494,70,198,79,275,155,79,190,247,459,51,49,155,66,36,50,38,31,38,148,156,207,102,25,120,52,288,122,25,57,31,78,85,127,63,35,38,211,102,70,67,213,106,74,232,25,80,127,44,98,67,127,24,289,190,375,190,32,36,387];
Surgeon = [11,6,6,4,6,5,3,6,5,7,5,13,13,5,5,3,6,3,3,1,5,1,1,3,5,4,3,8,2,4,3,6,1,6,16,6,6,11,8,3,6,2,6,6,1,7,3,1,6,3,3,1,4,6,1,6,6,17,4,1,2,3,12,11,7,2,3,3,3,4,6,1,5,2,6,5,5,10,6,1,3,6,9,2,6,5,5,4,6,4,11,4,4,6,3,4,3,6,5,5,6,5,1,5,5,6,4,1,13,3,9,5,1,1,6,2,4,10,2,10,5,8,3,7,2,4,15,6,2,7,4,3,8,7,10,5,7,5,1,5,4,6,7,3,4,2,2,3,9,1,4,3,3,3,2,1,8,6,5,1,10,5,4,5,7,6,3,5,4,7,1,10,1,12,1,3,4,5,6,6,13,3,1,4,7,4];
BlockAvailability = [[[0,0],[1,0],[0,0],[1,1],[0,0],[0,0],[0,0],[0,0],[0,0],[0,0]],[[0,1],[1,1],[1,0],[0,0],[1,0],[1,0],[0,0],[0,0],[0,0],[0,0]],[[0,0],[0,0],[1,0],[0,0],[0,0],[0,0],[0,0],[0,0],[0,0],[1,0]],[[0,0],[0,0],[0,1],[0,0],[0,1],[0,0],[0,0],[0,0],[0,1],[0,0]],[[0,0],[0,0],[0,0],[1,0],[0,1],[0,0],[1,0],[0,0],[0,1],[0,0]],[[1,0],[0,0],[1,0],[0,0],[0,1],[0,1],[0,0],[0,1],[0,0],[0,0]]];
SurgeonAvailability = [[[0,1],[0,1],[1,0],[1,1],[1,1],[1,1]],[[1,1],[1,1],[0,0],[1,0],[1,0],[0,1]],[[1,1],[1,1],[0,1],[1,1],[1,1],[1,1]],[[1,1],[0,1],[1,1],[1,1],[1,1],[0,1]],[[1,1],[1,0],[1,1],[1,1],[0,1],[1,0]],[[1,1],[1,1],[1,1],[1,1],[0,0],[1,1]],[[1,1],[0,1],[1,0],[1,1],[1,1],[1,0]],[[0,0],[1,1],[1,1],[0,0],[0,1],[0,1]],[[1,1],[1,1],[1,0],[1,1],[1,0],[1,0]],[[1,1],[0,0],[1,1],[0,1],[1,0],[0,1]],[[1,1],[0,0],[1,1],[1,1],[0,1],[0,1]],[[1,1],[1,0],[1,1],[1,1],[1,1],[1,1]],[[1,1],[0,1],[1,1],[1,0],[1,1],[1,1]],[[0,1],[1,1],[1,1],[0,1],[0,1],[1,1]],[[1,1],[1,0],[0,1],[0,1],[0,1],[1,1]],[[1,1],[1,0],[0,0],[1,1],[1,1],[1,0]],[[1,1],[0,0],[1,0],[0,0],[1,0],[1,1]],[[1,1],[1,0],[1,0],[1,1],[0,1],[1,1]],[[1,1],[0,1],[0,1],[1,1],[1,1],[1,0]],[[1,0],[1,1],[0,0],[0,1],[1,0],[0,0]],[[0,1],[1,1],[1,1],[0,1],[1,1],[1,1]],[[0,1],[1,1],[1,0],[1,0],[1,1],[1,0]],[[1,0],[1,1],[1,1],[1,1],[0,1],[1,1]]];
